;; translated from ./ctigar/xyz.c.vmt
;; original benchmark available at: https://es-static.fbk.eu/people/griggio/ic3ia/index.html
;; author: Alberto Griggio <griggio@fbk.eu>
(set-logic HORN)
(declare-fun state (Bool Bool Bool Bool Bool Int Int Int) Bool)
(assert (forall ((|.s.2| Bool) (|.s.3| Bool) (|.s.0| Bool) (|.s.1| Bool) (|.s.1.next| Bool) (|.s.0.next| Bool) (|.s.2.next| Bool) (|.s.3.next| Bool) (|.s.4.next| Bool) (|main.x.next| Int) (|main.x| Int) (|main.y.next| Int) (|main.y| Int) (|main.z.next| Int) (|main.z| Int) (|.inputVar.0| Int) (|.s.4| Bool)) (=> (let ((.def_20 (not .s.4)))
(let ((.def_17 (not .s.3)))
(let ((.def_14 (not .s.2)))
(let ((.def_10 (not .s.1)))
(let ((.def_12 (and .def_10 .s.0)))
(let ((.def_15 (and .def_12 .def_14)))
(let ((.def_18 (and .def_15 .def_17)))
(let ((.def_21 (and .def_18 .def_20)))
.def_21)))))))) (state |.s.1| |.s.0| |.s.2| |.s.3| |.s.4| |main.x| |main.y| |main.z|))))
(assert (forall ((|.s.2| Bool) (|.s.3| Bool) (|.s.0| Bool) (|.s.1| Bool) (|.s.1.next| Bool) (|.s.0.next| Bool) (|.s.2.next| Bool) (|.s.3.next| Bool) (|.s.4.next| Bool) (|main.x.next| Int) (|main.x| Int) (|main.y.next| Int) (|main.y| Int) (|main.z.next| Int) (|main.z| Int) (|.inputVar.0| Int) (|.s.4| Bool)) (=> (and (state |.s.1| |.s.0| |.s.2| |.s.3| |.s.4| |main.x| |main.y| |main.z|) (let ((.def_22 (not .s.0)))
(let ((.def_10 (not .s.1)))
(let ((.def_65 (and .def_10 .def_22)))
(let ((.def_14 (not .s.2)))
(let ((.def_66 (and .def_14 .def_65)))
(let ((.def_17 (not .s.3)))
(let ((.def_67 (and .def_17 .def_66)))
(let ((.def_20 (not .s.4)))
(let ((.def_261 (and .def_20 .def_67)))
(let ((.def_262 (not .def_261)))
(let ((.def_56 (not .s.1.next)))
(let ((.def_29 (not .s.0.next)))
(let ((.def_57 (and .def_29 .def_56)))
(let ((.def_33 (not .s.2.next)))
(let ((.def_58 (and .def_33 .def_57)))
(let ((.def_36 (not .s.3.next)))
(let ((.def_59 (and .def_36 .def_58)))
(let ((.def_55 (not .s.4.next)))
(let ((.def_60 (and .def_55 .def_59)))
(let ((.def_42 (= main.x main.x.next)))
(let ((.def_61 (and .def_42 .def_60)))
(let ((.def_46 (= main.y main.y.next)))
(let ((.def_62 (and .def_46 .def_61)))
(let ((.def_50 (= main.z main.z.next)))
(let ((.def_63 (and .def_50 .def_62)))
(let ((.def_263 (or .def_63 .def_262)))
(let ((.def_31 (and .def_29 .s.1.next)))
(let ((.def_34 (and .def_31 .def_33)))
(let ((.def_37 (and .def_34 .def_36)))
(let ((.def_256 (and .def_37 .def_55)))
(let ((.def_255 (= main.x.next 0)))
(let ((.def_257 (and .def_255 .def_256)))
(let ((.def_258 (and .def_46 .def_257)))
(let ((.def_259 (and .def_50 .def_258)))
(let ((.def_12 (and .def_10 .s.0)))
(let ((.def_15 (and .def_12 .def_14)))
(let ((.def_18 (and .def_15 .def_17)))
(let ((.def_21 (and .def_18 .def_20)))
(let ((.def_254 (not .def_21)))
(let ((.def_260 (or .def_254 .def_259)))
(let ((.def_264 (and .def_260 .def_263)))
(let ((.def_151 (and .s.0.next .s.1.next)))
(let ((.def_152 (and .def_33 .def_151)))
(let ((.def_248 (and .def_36 .def_152)))
(let ((.def_249 (and .def_55 .def_248)))
(let ((.def_247 (= main.y.next 0)))
(let ((.def_250 (and .def_247 .def_249)))
(let ((.def_251 (and .def_42 .def_250)))
(let ((.def_252 (and .def_50 .def_251)))
(let ((.def_23 (and .s.1 .def_22)))
(let ((.def_24 (and .def_14 .def_23)))
(let ((.def_25 (and .def_17 .def_24)))
(let ((.def_245 (and .def_20 .def_25)))
(let ((.def_246 (not .def_245)))
(let ((.def_253 (or .def_246 .def_252)))
(let ((.def_265 (and .def_253 .def_264)))
(let ((.def_240 (= main.z.next 0)))
(let ((.def_138 (and .s.2.next .def_57)))
(let ((.def_184 (and .def_36 .def_138)))
(let ((.def_185 (and .def_55 .def_184)))
(let ((.def_241 (and .def_185 .def_240)))
(let ((.def_242 (and .def_42 .def_241)))
(let ((.def_243 (and .def_46 .def_242)))
(let ((.def_78 (and .s.1 .s.0)))
(let ((.def_134 (and .def_14 .def_78)))
(let ((.def_237 (and .def_17 .def_134)))
(let ((.def_238 (and .def_20 .def_237)))
(let ((.def_239 (not .def_238)))
(let ((.def_244 (or .def_239 .def_243)))
(let ((.def_266 (and .def_244 .def_265)))
(let ((.def_70 (and .s.0.next .def_56)))
(let ((.def_127 (and .s.2.next .def_70)))
(let ((.def_231 (and .def_36 .def_127)))
(let ((.def_232 (and .def_55 .def_231)))
(let ((.def_233 (and .def_42 .def_232)))
(let ((.def_234 (and .def_46 .def_233)))
(let ((.def_235 (and .def_50 .def_234)))
(let ((.def_224 (= .inputVar.0 0)))
(let ((.def_120 (and .s.2 .def_65)))
(let ((.def_221 (and .def_17 .def_120)))
(let ((.def_222 (and .def_20 .def_221)))
(let ((.def_229 (and .def_222 .def_224)))
(let ((.def_230 (not .def_229)))
(let ((.def_236 (or .def_230 .def_235)))
(let ((.def_267 (and .def_236 .def_266)))
(let ((.def_225 (not .def_224)))
(let ((.def_226 (and .def_222 .def_225)))
(let ((.def_227 (not .def_226)))
(let ((.def_71 (and .def_33 .def_70)))
(let ((.def_100 (and .s.3.next .def_71)))
(let ((.def_101 (and .def_55 .def_100)))
(let ((.def_102 (and .def_42 .def_101)))
(let ((.def_103 (and .def_46 .def_102)))
(let ((.def_104 (and .def_50 .def_103)))
(let ((.def_228 (or .def_104 .def_227)))
(let ((.def_268 (and .def_228 .def_267)))
(let ((.def_113 (and .def_31 .s.2.next)))
(let ((.def_215 (and .def_36 .def_113)))
(let ((.def_216 (and .def_55 .def_215)))
(let ((.def_124 (* (- 1) main.x.next)))
(let ((.def_125 (+ main.x .def_124)))
(let ((.def_214 (= .def_125 (- 1))))
(let ((.def_217 (and .def_214 .def_216)))
(let ((.def_218 (and .def_46 .def_217)))
(let ((.def_219 (and .def_50 .def_218)))
(let ((.def_106 (and .def_12 .s.2)))
(let ((.def_211 (and .def_17 .def_106)))
(let ((.def_212 (and .def_20 .def_211)))
(let ((.def_213 (not .def_212)))
(let ((.def_220 (or .def_213 .def_219)))
(let ((.def_269 (and .def_220 .def_268)))
(let ((.def_174 (and .s.2.next .def_151)))
(let ((.def_205 (and .def_36 .def_174)))
(let ((.def_206 (and .def_55 .def_205)))
(let ((.def_110 (* (- 1) main.y.next)))
(let ((.def_111 (+ main.y .def_110)))
(let ((.def_204 (= .def_111 (- 1))))
(let ((.def_207 (and .def_204 .def_206)))
(let ((.def_208 (and .def_42 .def_207)))
(let ((.def_209 (and .def_50 .def_208)))
(let ((.def_96 (and .s.2 .def_23)))
(let ((.def_201 (and .def_17 .def_96)))
(let ((.def_202 (and .def_20 .def_201)))
(let ((.def_203 (not .def_202)))
(let ((.def_210 (or .def_203 .def_209)))
(let ((.def_270 (and .def_210 .def_269)))
(let ((.def_195 (and .s.3.next .def_58)))
(let ((.def_196 (and .def_55 .def_195)))
(let ((.def_141 (* (- 1) main.z.next)))
(let ((.def_142 (+ main.z .def_141)))
(let ((.def_194 (= .def_142 2)))
(let ((.def_197 (and .def_194 .def_196)))
(let ((.def_198 (and .def_42 .def_197)))
(let ((.def_199 (and .def_46 .def_198)))
(let ((.def_79 (and .s.2 .def_78)))
(let ((.def_190 (and .def_17 .def_79)))
(let ((.def_191 (and .def_20 .def_190)))
(let ((.def_192 (not .def_191)))
(let ((.def_200 (or .def_192 .def_199)))
(let ((.def_271 (and .def_200 .def_270)))
(let ((.def_186 (and .def_42 .def_185)))
(let ((.def_187 (and .def_46 .def_186)))
(let ((.def_188 (and .def_50 .def_187)))
(let ((.def_181 (and .s.3 .def_66)))
(let ((.def_182 (and .def_20 .def_181)))
(let ((.def_183 (not .def_182)))
(let ((.def_189 (or .def_183 .def_188)))
(let ((.def_272 (and .def_189 .def_271)))
(let ((.def_175 (and .s.3.next .def_174)))
(let ((.def_176 (and .def_55 .def_175)))
(let ((.def_177 (and .def_42 .def_176)))
(let ((.def_178 (and .def_46 .def_177)))
(let ((.def_179 (and .def_50 .def_178)))
(let ((.def_162 (<= main.x 0)))
(let ((.def_159 (and .def_15 .s.3)))
(let ((.def_160 (and .def_20 .def_159)))
(let ((.def_172 (and .def_160 .def_162)))
(let ((.def_173 (not .def_172)))
(let ((.def_180 (or .def_173 .def_179)))
(let ((.def_273 (and .def_180 .def_272)))
(let ((.def_166 (and .def_34 .s.3.next)))
(let ((.def_167 (and .def_55 .def_166)))
(let ((.def_168 (and .def_42 .def_167)))
(let ((.def_169 (and .def_46 .def_168)))
(let ((.def_170 (and .def_50 .def_169)))
(let ((.def_163 (not .def_162)))
(let ((.def_164 (and .def_160 .def_163)))
(let ((.def_165 (not .def_164)))
(let ((.def_171 (or .def_165 .def_170)))
(let ((.def_274 (and .def_171 .def_273)))
(let ((.def_153 (and .s.3.next .def_152)))
(let ((.def_154 (and .def_55 .def_153)))
(let ((.def_143 (= .def_142 (- 1))))
(let ((.def_155 (and .def_143 .def_154)))
(let ((.def_156 (and .def_42 .def_155)))
(let ((.def_157 (and .def_46 .def_156)))
(let ((.def_148 (and .s.3 .def_24)))
(let ((.def_149 (and .def_20 .def_148)))
(let ((.def_150 (not .def_149)))
(let ((.def_158 (or .def_150 .def_157)))
(let ((.def_275 (and .def_158 .def_274)))
(let ((.def_139 (and .s.3.next .def_138)))
(let ((.def_140 (and .def_55 .def_139)))
(let ((.def_144 (and .def_140 .def_143)))
(let ((.def_145 (and .def_42 .def_144)))
(let ((.def_146 (and .def_46 .def_145)))
(let ((.def_135 (and .s.3 .def_134)))
(let ((.def_136 (and .def_20 .def_135)))
(let ((.def_137 (not .def_136)))
(let ((.def_147 (or .def_137 .def_146)))
(let ((.def_276 (and .def_147 .def_275)))
(let ((.def_128 (and .s.3.next .def_127)))
(let ((.def_129 (and .def_55 .def_128)))
(let ((.def_126 (= .def_125 1)))
(let ((.def_130 (and .def_126 .def_129)))
(let ((.def_131 (and .def_46 .def_130)))
(let ((.def_132 (and .def_50 .def_131)))
(let ((.def_121 (and .s.3 .def_120)))
(let ((.def_122 (and .def_20 .def_121)))
(let ((.def_123 (not .def_122)))
(let ((.def_133 (or .def_123 .def_132)))
(let ((.def_277 (and .def_133 .def_276)))
(let ((.def_114 (and .s.3.next .def_113)))
(let ((.def_115 (and .def_55 .def_114)))
(let ((.def_112 (= .def_111 1)))
(let ((.def_116 (and .def_112 .def_115)))
(let ((.def_117 (and .def_42 .def_116)))
(let ((.def_118 (and .def_50 .def_117)))
(let ((.def_107 (and .s.3 .def_106)))
(let ((.def_108 (and .def_20 .def_107)))
(let ((.def_109 (not .def_108)))
(let ((.def_119 (or .def_109 .def_118)))
(let ((.def_278 (and .def_119 .def_277)))
(let ((.def_97 (and .s.3 .def_96)))
(let ((.def_98 (and .def_20 .def_97)))
(let ((.def_99 (not .def_98)))
(let ((.def_105 (or .def_99 .def_104)))
(let ((.def_279 (and .def_105 .def_278)))
(let ((.def_84 (<= main.z (- 1))))
(let ((.def_80 (and .s.3 .def_79)))
(let ((.def_81 (and .def_20 .def_80)))
(let ((.def_93 (and .def_81 .def_84)))
(let ((.def_94 (not .def_93)))
(let ((.def_39 (and .def_37 .s.4.next)))
(let ((.def_43 (and .def_39 .def_42)))
(let ((.def_47 (and .def_43 .def_46)))
(let ((.def_51 (and .def_47 .def_50)))
(let ((.def_95 (or .def_51 .def_94)))
(let ((.def_280 (and .def_95 .def_279)))
(let ((.def_88 (and .s.4.next .def_59)))
(let ((.def_89 (and .def_42 .def_88)))
(let ((.def_90 (and .def_46 .def_89)))
(let ((.def_91 (and .def_50 .def_90)))
(let ((.def_85 (not .def_84)))
(let ((.def_86 (and .def_81 .def_85)))
(let ((.def_87 (not .def_86)))
(let ((.def_92 (or .def_87 .def_91)))
(let ((.def_281 (and .def_92 .def_280)))
(let ((.def_72 (and .def_36 .def_71)))
(let ((.def_73 (and .s.4.next .def_72)))
(let ((.def_74 (and .def_42 .def_73)))
(let ((.def_75 (and .def_46 .def_74)))
(let ((.def_76 (and .def_50 .def_75)))
(let ((.def_68 (and .s.4 .def_67)))
(let ((.def_69 (not .def_68)))
(let ((.def_77 (or .def_69 .def_76)))
(let ((.def_282 (and .def_77 .def_281)))
(let ((.def_53 (and .def_18 .s.4)))
(let ((.def_54 (not .def_53)))
(let ((.def_64 (or .def_54 .def_63)))
(let ((.def_283 (and .def_64 .def_282)))
(let ((.def_26 (and .s.4 .def_25)))
(let ((.def_27 (not .def_26)))
(let ((.def_52 (or .def_27 .def_51)))
(let ((.def_284 (and .def_52 .def_283)))
.def_284)))))))))))))))))))))))))))))))))))))))))))))))))))))))))))))))))))))))))))))))))))))))))))))))))))))))))))))))))))))))))))))))))))))))))))))))))))))))))))))))))))))))))))))))))))))))))))))))))))))))))))))))))))))))))))))))))))))))))))))))))))))))))))))))) (state |.s.1.next| |.s.0.next| |.s.2.next| |.s.3.next| |.s.4.next| |main.x.next| |main.y.next| |main.z.next|))))
(assert (forall ((|.s.2| Bool) (|.s.3| Bool) (|.s.0| Bool) (|.s.1| Bool) (|.s.1.next| Bool) (|.s.0.next| Bool) (|.s.2.next| Bool) (|.s.3.next| Bool) (|.s.4.next| Bool) (|main.x.next| Int) (|main.x| Int) (|main.y.next| Int) (|main.y| Int) (|main.z.next| Int) (|main.z| Int) (|.inputVar.0| Int) (|.s.4| Bool)) (=> (state |.s.1| |.s.0| |.s.2| |.s.3| |.s.4| |main.x| |main.y| |main.z|) (let ((.def_22 (not .s.0)))
(let ((.def_23 (and .s.1 .def_22)))
(let ((.def_14 (not .s.2)))
(let ((.def_24 (and .def_14 .def_23)))
(let ((.def_17 (not .s.3)))
(let ((.def_25 (and .def_17 .def_24)))
(let ((.def_26 (and .s.4 .def_25)))
(let ((.def_27 (not .def_26)))
.def_27)))))))))))
(check-sat)
